>> Start of run:   2-JUL-2022  14:19:26

reinit: Reading from standard input
************************** Dump of input data file ****************************
#		General system descritprs
SystemName   Germanio
SystemLabel  Ge
NumberOfAtoms    2
NumberOfSpecies  1
%block ChemicalSpeciesLabel
    1     32   Ge
%endblock ChemicalSpeciesLabel
LatticeConstant  2.461 Ang
%block LatticeVectors
 0.500000  0.866000    0.000000
 0.500000 -0.86600000  0.000000
 0.000000  0.000000    20.00000
%endblock LatticeVectors
AtomicCoordinatesFormat Ang
%block AtomicCoordinatesAndAtomicSpecies
0.333333    0.000000    0.000000       1
0.666666    0.000000    0.000000       1
%endblock AtomicCoordinatesAndAtomicSpecies
BandLinesScale pi/a
%block BandLines
 1    0.00000   0.000   0.0000   \Gamma
 35   1.00000   1.1547  0.0000   X
 35   3.33333   0.000   0.0000   K
 35   0.00000   0.000   0.0000   \Gamma
%endblock BandLines
xc.functional         GGA
xc.authors            PBE
SpinPolarized         True
%block kgrid_Monkhorst_Pack
  7   0   0    0.5
  0   7   0    0.5
  0   0   1    0.5
%endblock kgrid_Monkhorst_Pack
MaxSCFIterations    300
DM.MixingWeight       0.20
DM.NumberPulay         4
DM.Tolerance          1.d-5
# Aqu√≠ va la base del germanio
PAO.EnergyShift 0.02 eV
************************** End of input data file *****************************

reinit: -----------------------------------------------------------------------
reinit: System Name: Germanio
reinit: -----------------------------------------------------------------------
reinit: System Label: Ge
reinit: -----------------------------------------------------------------------

initatom: Reading input for the pseudopotentials and atomic orbitals ----------
 Species number:            1  Label: Ge Atomic number:          32
Ground state valence configuration:   4s02  4p02
Reading pseudopotential information in formatted form from Ge.psf

Pseudopotential generated from an atomic spin-polarized calculation

Valence configuration for pseudopotential generation:
4s(1.00,1.00) rc: 1.71
4p(1.00,1.00) rc: 2.78
4d(0.00,0.00) rc: 2.78
4f(0.00,0.00) rc: 2.78
For Ge, standard SIESTA heuristics set lmxkb to 3
 (one more than the basis l, including polarization orbitals).
Use PS.lmax or PS.KBprojectors blocks to override.

<basis_specs>
Ge                   Z=  32    Mass=  72.610        Charge= 0.17977+309
Lmxo=1 Lmxkb= 3    BasisType=split      Semic=F
L=0  Nsemic=0  Cnfigmx=4
          n=1  nzeta=2  polorb=0
            splnorm:   0.15000
               vcte:    0.0000
               rinn:    0.0000
               qcoe:    0.0000
               qyuk:    0.0000
               qwid:   0.10000E-01
                rcs:    0.0000      0.0000
            lambdas:    1.0000      1.0000
L=1  Nsemic=0  Cnfigmx=4
          n=1  nzeta=2  polorb=1
            splnorm:   0.15000
               vcte:    0.0000
               rinn:    0.0000
               qcoe:    0.0000
               qyuk:    0.0000
               qwid:   0.10000E-01
                rcs:    0.0000      0.0000
            lambdas:    1.0000      1.0000
L=0  Nkbl=1  erefs: 0.17977+309
L=1  Nkbl=1  erefs: 0.17977+309
L=2  Nkbl=1  erefs: 0.17977+309
L=3  Nkbl=1  erefs: 0.17977+309
</basis_specs>

atom: Called for Ge                    (Z =  32)

read_vps: Pseudopotential generation method:
read_vps: ATM3      Troullier-Martins
Total valence charge:    4.00000

xc_check: Exchange-correlation functional:
xc_check: GGA Perdew, Burke & Ernzerhof 1996
V l=0 = -2*Zval/r beyond r=  3.3931
V l=1 = -2*Zval/r beyond r=  3.3931
V l=2 = -2*Zval/r beyond r=  3.3931
V l=3 = -2*Zval/r beyond r=  3.3931
All V_l potentials equal beyond r=  2.7435
This should be close to max(r_c) in ps generation
All pots = -2*Zval/r beyond r=  3.3931

VLOCAL1: 99.0% of the norm of Vloc inside      5.767 Ry
VLOCAL1: 99.9% of the norm of Vloc inside     13.143 Ry
atom: Maximum radius for 4*pi*r*r*local-pseudopot. charge    3.26820
atom: Maximum radius for r*vlocal+2*Zval:    2.84834
GHOST: No ghost state for L =  0
GHOST: No ghost state for L =  1
GHOST: No ghost state for L =  2
GHOST: No ghost state for L =  3
KBproj: WARNING: Rc( 3)=      4.5233
KBproj: WARNING: Cut of radius for the KB projector too big
KBproj: WARNING: Increasing the tolerance parameter eps
KBproj: WARNING: might be a good idea

KBgen: Kleinman-Bylander projectors:
   l= 0   rc=  3.478989   el= -0.837835   Ekb=  8.967115   kbcos=  0.125675
   l= 1   rc=  3.942222   el= -0.288963   Ekb=  1.050541   kbcos=  0.220882
   l= 2   rc=  4.356837   el=  0.001966   Ekb=  0.324663   kbcos=  0.110508
   l= 3   rc=  4.523323   el=  0.003058   Ekb= -0.683346   kbcos= -0.015375

KBgen: Total number of  Kleinman-Bylander projectors:   16
atom: -------------------------------------------------------------------------

atom: SANKEY-TYPE ORBITALS:
atom: Selected multiple-zeta basis: split

SPLIT: Orbitals with angular momentum L= 0

SPLIT: Basis orbitals for state 4s

SPLIT: PAO cut-off radius determined from an
SPLIT: energy shift=  0.001470 Ry

   izeta = 1
                 lambda =    1.000000
                     rc =    6.581432
                 energy =   -0.836666
                kinetic =    0.568688
    potential(screened) =   -1.405353
       potential(ionic) =   -3.808417

   izeta = 2
                 rmatch =    4.523323
              splitnorm =    0.150000
                 energy =   -0.745858
                kinetic =    0.907519
    potential(screened) =   -1.653377
       potential(ionic) =   -4.163372

SPLIT: Orbitals with angular momentum L= 1

SPLIT: Basis orbitals for state 4p

SPLIT: PAO cut-off radius determined from an
SPLIT: energy shift=  0.001470 Ry

   izeta = 1
                 lambda =    1.000000
                     rc =    8.884031
                 energy =   -0.287537
                kinetic =    0.724997
    potential(screened) =   -1.012533
       potential(ionic) =   -3.143790

   izeta = 2
                 rmatch =    5.594311
              splitnorm =    0.150000
                 energy =   -0.217722
                kinetic =    1.069984
    potential(screened) =   -1.287706
       potential(ionic) =   -3.620872

POLgen: Perturbative polarization orbital with L=  2

POLgen: Polarization orbital for state 4p

   izeta = 1
                     rc =    8.884031
                 energy =    0.288436
                kinetic =    0.985202
    potential(screened) =   -0.696766
       potential(ionic) =   -2.585389
atom: Total number of Sankey-type orbitals: 13

atm_pop: Valence configuration (for local Pseudopot. screening):
 4s( 2.00)
 4p( 2.00)
Vna: chval, zval:    4.00000   4.00000

Vna:  Cut-off radius for the neutral-atom potential:   8.884031

atom: _________________________________________________________________________

prinput: Basis input ----------------------------------------------------------

PAO.BasisType split

%block ChemicalSpeciesLabel
    1   32 Ge                      # Species index, atomic number, species label
%endblock ChemicalSpeciesLabel

%block PAO.Basis                 # Define Basis set
Ge                    2                    # Species label, number of l-shells
 n=4   0   2                         # n, l, Nzeta
   6.581      4.523
   1.000      1.000
 n=4   1   2 P   1                   # n, l, Nzeta, Polarization, NzetaPol
   8.884      5.594
   1.000      1.000
%endblock PAO.Basis

prinput: ----------------------------------------------------------------------

coor:   Atomic-coordinates input format  =     Cartesian coordinates
coor:                                          (in Angstroms)

siesta: Atomic coordinates (Bohr) and species
siesta:      0.62991   0.00000   0.00000  1        1
siesta:      1.25982   0.00000   0.00000  1        2

siesta: System type = slab

initatomlists: Number of atoms, orbitals, and projectors:      2    26    32

siesta: ******************** Simulation parameters ****************************
siesta:
siesta: The following are some of the parameters of the simulation.
siesta: A complete list of the parameters used, including default values,
siesta: can be found in file out.fdf
siesta:
redata: Non-Collinear-spin run           =     F
redata: SpinPolarized (Up/Down) run      =     T
redata: Number of spin components        =     2
redata: Long output                      =     F
redata: Number of Atomic Species         =        1
redata: Charge density info will appear in .RHO file
redata: Write Mulliken Pop.              =     NO
redata: Mesh Cutoff                      =   100.0000  Ry
redata: Net charge of the system         =     0.0000 |e|
redata: Min. number of SCF Iter          =        0
redata: Max. number of SCF Iter          =      300
redata: Mix DM or H after convergence    =     F
redata: Recompute H after scf cycle      =     F
redata: Performing Pulay mixing using    =     4 iterations
redata: Mix DM in first SCF step ?       =     F
redata: Write Pulay info on disk?        =     F
redata: Discard 1st Pulay DM after  kick =     F
redata: New DM Mixing Weight             =     0.2000
redata: New DM Occupancy tolerance       = 0.000000000001
redata: No kicks to SCF
redata: DM Mixing Weight for Kicks       =     0.5000
redata: DM Tolerance for SCF             =     0.000010
redata: Require (free) Energy convergence in SCF =     F
redata: DM (free)Energy tolerance for SCF =     0.000010 eV
redata: Require Harris convergence for SCF =     F
redata: DM Harris energy tolerance for SCF =     0.000010 eV
redata: Antiferro initial spin density   =     F
redata: Using Saved Data (generic)   =     F
redata: Use continuation files for DM    =     F
redata: Neglect nonoverlap interactions  =     F
redata: Method of Calculation            =     Diagonalization
redata: Divide and Conquer               =     T
redata: Electronic Temperature           =     0.0019  Ry
redata: Fix the spin of the system       =     F
redata: Dynamics option                  =     Single-point calculation
redata: ***********************************************************************
Total number of electrons:     8.000000
Total ionic charge:     8.000000

* ProcessorY, Blocksize:    1  24

* Orbital distribution balance (max,min):    26    26

k-point displ. along   1 input, could be:     0.50    0.00
k-point displ. along   2 input, could be:     0.50    0.00
k-point displ. along   3 input, could be:     0.50    0.00
 Kpoints in:           28 . Kpoints trimmed:           28

siesta: k-grid: Number of k-points =    28
siesta: k-grid: Cutoff (effective) =     8.613 Ang
siesta: k-grid: Supercell and displacements
siesta: k-grid:    7   0   0      0.500
siesta: k-grid:    0   7   0      0.500
siesta: k-grid:    0   0   1      0.500
Naive supercell factors:    12   12    1

superc: Internal auxiliary supercell:    12 x    12 x     1  =     144
superc: Number of atoms, orbitals, and projectors:    288   3744   4608

                        Single-point calculation

superc: Internal auxiliary supercell:    12 x    12 x     1  =     144
superc: Number of atoms, orbitals, and projectors:    288   3744   4608

outcell: Unit cell vectors (Ang):
        1.230500    2.131226    0.000000
        1.230500   -2.131226    0.000000
        0.000000    0.000000   49.220000

outcell: Cell vector modules (Ang)   :    2.460946    2.460946   49.220000
outcell: Cell angles (23,13,12) (deg):     90.0000     90.0000    119.9985
outcell: Cell volume (Ang**3)        :    258.1563
siesta: WARNING: Atoms     1     2 too close: rij =    0.333333 Ang
siesta: WARNING: Atoms     3     4 too close: rij =    0.333333 Ang
siesta: WARNING: Atoms     5     6 too close: rij =    0.333333 Ang
siesta: WARNING: Atoms     7     8 too close: rij =    0.333333 Ang
siesta: WARNING: Atoms     9    10 too close: rij =    0.333333 Ang
siesta: WARNING: Atoms    11    12 too close: rij =    0.333333 Ang
siesta: WARNING: Atoms    13    14 too close: rij =    0.333333 Ang
siesta: WARNING: Atoms    15    16 too close: rij =    0.333333 Ang
siesta: WARNING: Atoms    17    18 too close: rij =    0.333333 Ang
siesta: WARNING: Atoms    19    20 too close: rij =    0.333333 Ang
siesta: WARNING: Atoms    21    22 too close: rij =    0.333333 Ang
siesta: WARNING: Atoms    23    24 too close: rij =    0.333333 Ang
siesta: WARNING: Atoms    25    26 too close: rij =    0.333333 Ang
siesta: WARNING: Atoms    27    28 too close: rij =    0.333333 Ang
siesta: WARNING: Atoms    29    30 too close: rij =    0.333333 Ang
siesta: WARNING: Atoms    31    32 too close: rij =    0.333333 Ang
siesta: WARNING: Atoms    33    34 too close: rij =    0.333333 Ang
siesta: WARNING: Atoms    35    36 too close: rij =    0.333333 Ang
siesta: WARNING: Atoms    37    38 too close: rij =    0.333333 Ang
siesta: WARNING: Atoms    39    40 too close: rij =    0.333333 Ang
siesta: WARNING: Atoms    41    42 too close: rij =    0.333333 Ang
siesta: WARNING: Atoms    43    44 too close: rij =    0.333333 Ang
siesta: WARNING: Atoms    45    46 too close: rij =    0.333333 Ang
siesta: WARNING: Atoms    47    48 too close: rij =    0.333333 Ang
siesta: WARNING: Atoms    49    50 too close: rij =    0.333333 Ang
siesta: WARNING: Atoms    51    52 too close: rij =    0.333333 Ang
siesta: WARNING: Atoms    53    54 too close: rij =    0.333333 Ang
siesta: WARNING: Atoms    55    56 too close: rij =    0.333333 Ang
siesta: WARNING: Atoms    57    58 too close: rij =    0.333333 Ang
siesta: WARNING: Atoms    59    60 too close: rij =    0.333333 Ang
siesta: WARNING: Atoms    61    62 too close: rij =    0.333333 Ang
siesta: WARNING: Atoms    63    64 too close: rij =    0.333333 Ang
siesta: WARNING: Atoms    65    66 too close: rij =    0.333333 Ang
siesta: WARNING: Atoms    67    68 too close: rij =    0.333333 Ang
siesta: WARNING: Atoms    69    70 too close: rij =    0.333333 Ang
siesta: WARNING: Atoms    71    72 too close: rij =    0.333333 Ang
siesta: WARNING: Atoms    73    74 too close: rij =    0.333333 Ang
siesta: WARNING: Atoms    75    76 too close: rij =    0.333333 Ang
siesta: WARNING: Atoms    77    78 too close: rij =    0.333333 Ang
siesta: WARNING: Atoms    79    80 too close: rij =    0.333333 Ang
siesta: WARNING: Atoms    81    82 too close: rij =    0.333333 Ang
siesta: WARNING: Atoms    83    84 too close: rij =    0.333333 Ang
siesta: WARNING: Atoms    85    86 too close: rij =    0.333333 Ang
siesta: WARNING: Atoms    87    88 too close: rij =    0.333333 Ang
siesta: WARNING: Atoms    89    90 too close: rij =    0.333333 Ang
siesta: WARNING: Atoms    91    92 too close: rij =    0.333333 Ang
siesta: WARNING: Atoms    93    94 too close: rij =    0.333333 Ang
siesta: WARNING: Atoms    95    96 too close: rij =    0.333333 Ang
siesta: WARNING: Atoms    97    98 too close: rij =    0.333333 Ang
siesta: WARNING: Atoms    99   100 too close: rij =    0.333333 Ang
siesta: WARNING: Atoms   101   102 too close: rij =    0.333333 Ang
siesta: WARNING: Atoms   103   104 too close: rij =    0.333333 Ang
siesta: WARNING: Atoms   105   106 too close: rij =    0.333333 Ang
siesta: WARNING: Atoms   107   108 too close: rij =    0.333333 Ang
siesta: WARNING: Atoms   109   110 too close: rij =    0.333333 Ang
siesta: WARNING: Atoms   111   112 too close: rij =    0.333333 Ang
siesta: WARNING: Atoms   113   114 too close: rij =    0.333333 Ang
siesta: WARNING: Atoms   115   116 too close: rij =    0.333333 Ang
siesta: WARNING: Atoms   117   118 too close: rij =    0.333333 Ang
siesta: WARNING: Atoms   119   120 too close: rij =    0.333333 Ang
[...]
siesta: WARNING: Atoms   259   260 too close: rij =    0.333333 Ang
siesta: WARNING: Atoms   261   262 too close: rij =    0.333333 Ang
siesta: WARNING: Atoms   263   264 too close: rij =    0.333333 Ang
siesta: WARNING: Atoms   265   266 too close: rij =    0.333333 Ang
siesta: WARNING: Atoms   267   268 too close: rij =    0.333333 Ang
siesta: WARNING: Atoms   269   270 too close: rij =    0.333333 Ang
siesta: WARNING: Atoms   271   272 too close: rij =    0.333333 Ang
siesta: WARNING: Atoms   273   274 too close: rij =    0.333333 Ang
siesta: WARNING: Atoms   275   276 too close: rij =    0.333333 Ang
siesta: WARNING: Atoms   277   278 too close: rij =    0.333333 Ang
siesta: WARNING: Atoms   279   280 too close: rij =    0.333333 Ang
siesta: WARNING: Atoms   281   282 too close: rij =    0.333333 Ang
siesta: WARNING: Atoms   283   284 too close: rij =    0.333333 Ang
siesta: WARNING: Atoms   285   286 too close: rij =    0.333333 Ang
siesta: WARNING: Atoms   287   288 too close: rij =    0.333333 Ang
New_DM. Step:     1
Initializing Density Matrix...

initdm: Initial spin polarization (Qup-Qdown) =    4.000000
New grid distribution:   1
           1       1:    8    1:    8    1:  150

InitMesh: MESH =    16 x    16 x   300 =       76800
InitMesh: (bp) =     8 x     8 x   150 =        9600
InitMesh: Mesh cutoff (required, used) =   100.000   102.674 Ry
ExtMesh (bp) on 0 =    80 x    80 x   210 =     1344000
PhiOnMesh: Number of (b)points on node 0 =                 9600
PhiOnMesh: nlist on node 0 =               325451

stepf: Fermi-Dirac step function

siesta: Program's energy decomposition (eV):
siesta: Ebs     =      -170.611979
siesta: Eions   =       283.718919
siesta: Ena     =       501.643552
siesta: Ekin    =        70.408964
siesta: Enl     =        37.238189
siesta: DEna    =         0.000000
siesta: DUscf   =         0.000000
siesta: DUext   =         0.000000
siesta: Exc     =       -81.253705
siesta: eta*DQ  =         0.000000
siesta: Emadel  =         0.000000
siesta: Emeta   =         0.000000
siesta: Emolmec =         0.000000
siesta: Ekinion =         0.000000
siesta: Eharris =       276.016961
siesta: Etot    =       244.318082
siesta: FreeEng =       244.316814

SCF Convergence by dMax criterion
max |DM_out - DM_in|:     0.00000978
SCF cycle converged after   18 iterations

Using DM_out to compute the final energy and forces

siesta: E_KS(eV) =              274.7305

siesta: E_KS - E_eggbox =       274.7305

siesta: Atomic forces (eV/Ang):
   Tot   -0.108614    0.000000    0.000000
   Max 1929.672342
   Res 1114.065492    sqrt( Sum f_i^2 / 3N )
   Max 1929.672342    constrained

Stress-tensor-Voigt (kbar):    -3168.64      169.77       -0.00        0.00        0.00       -0.00
(Free)E + p*V (eV/cell)      435.7966
Target enthalpy (eV/cell)      274.7305
Computing bands...

siesta: Program's energy decomposition (eV):
siesta: Ebs     =      -121.546589
siesta: Eions   =       283.718919
siesta: Ena     =       501.643552
siesta: Ekin    =       130.360244
siesta: Enl     =        18.941762
siesta: DEna    =       -11.532811
siesta: DUscf   =         1.647255
siesta: DUext   =         0.000000
siesta: Exc     =       -82.610539
siesta: eta*DQ  =         0.000000
siesta: Emadel  =         0.000000
siesta: Emeta   =         0.000000
siesta: Emolmec =         0.000000
siesta: Ekinion =         0.000000
siesta: Eharris =       274.730545
siesta: Etot    =       274.730545
siesta: FreeEng =       274.730544

siesta: Final energy (eV):
siesta:  Band Struct. =    -121.546589
siesta:       Kinetic =     130.360244
siesta:       Hartree =    4079.537600
siesta:    Ext. field =       0.000000
siesta:   Exch.-corr. =     -82.610539
siesta:  Ion-electron =   -8303.413348
siesta:       Ion-ion =    4450.856588
siesta:       Ekinion =       0.000000
siesta:         Total =     274.730545

siesta: Atomic forces (eV/Ang):
siesta:      1-1929.672342    0.000000   -0.000000
siesta:      2 1929.563728   -0.000000    0.000000
siesta: ----------------------------------------
siesta:    Tot   -0.108614    0.000000    0.000000

siesta: Stress tensor (static) (eV/Ang**3):
siesta:    -1.977688   -0.000000   -0.000000
siesta:     0.000000    0.105963    0.000000
siesta:    -0.000000    0.000000   -0.000002

siesta: Cell volume =        258.156300 Ang**3

siesta: Pressure (static):
siesta:                Solid            Molecule  Units
siesta:           0.00679517         -0.00225016  Ry/Bohr**3
siesta:           0.62390906         -0.20660249  eV/Ang**3
siesta:         999.62332140       -331.01726240  kBar
(Free)E+ p_basis*V_orbitals  =         277.760236
(Free)Eharris+ p_basis*V_orbitals  =         277.760236

siesta: Total spin polarization (Qup-Qdown) =    0.000000

siesta: Electric dipole (a.u.)  =    0.000000    0.000000   -0.000000
siesta: Electric dipole (Debye) =    0.000000    0.000000   -0.000000

Routine            Calls   Time/call    Tot.time        %
siesta                 1     297.284     297.284   100.00
Setup                  1       0.164       0.164     0.06
bands                  3       4.475      13.424     4.52
writewave              1       0.000       0.000     0.00
KSV_init               1       0.000       0.000     0.00
IterGeom               1     283.684     283.684    95.43
state_init             1       0.228       0.228     0.08
hsparse                1       0.044       0.044     0.01
overlap                1       0.168       0.168     0.06
Setup_H0               1       3.628       3.628     1.22
naefs                  2       0.000       0.000     0.00
MolMec                 2       0.000       0.000     0.00
kinefsm                2       0.092       0.184     0.06
nlefsm                 2       2.708       5.416     1.82
DHSCF_Init             1       0.580       0.580     0.20
DHSCF1                 1       0.056       0.056     0.02
INITMESH               1       0.000       0.000     0.00
DHSCF2                 1       0.524       0.524     0.18
REMESH                 1       0.084       0.084     0.03
REORD                 85       0.000       0.008     0.00
PHION                  1       0.392       0.392     0.13
COMM_BSC              80       0.000       0.008     0.00
POISON                20       0.011       0.212     0.07
fft                   40       0.005       0.184     0.06
IterSCF               18      15.259     274.660    92.39
setup_H               18       1.341      24.136     8.12
DHSCF                 19       1.405      26.700     8.98
DHSCF3                19       1.335      25.356     8.53
rhoofd                19       0.727      13.808     4.64
cellXC                19       0.036       0.684     0.23
vmat                  19       0.558      10.600     3.57
compute_dm            18      13.901     250.220    84.17
diagon                18      13.898     250.156    84.15
c-eigval            1220       0.071      87.140    29.31
c-buildHS           1220       0.069      84.068    28.28
cdiag               2228       0.004       8.557     2.88
cdiag1              2228       0.001       1.300     0.44
cdiag2              2228       0.001       1.300     0.44
cdiag3              2228       0.002       5.532     1.86
cdiag4              2228       0.000       0.160     0.05
c-eigvec            1008       0.078      78.772    26.50
c-buildD            1008       0.077      77.496    26.07
MIXER                 17       0.008       0.128     0.04
WriteDM               18       0.009       0.168     0.06
PostSCF                1       5.152       5.152     1.73
DHSCF4                 1       1.340       1.340     0.45
dfscf                  1       1.300       1.300     0.44
overfsm                1       0.016       0.016     0.01
state_analysis         1       0.004       0.004     0.00
siesta_move            1       0.000       0.000     0.00
optical                1       0.000       0.000     0.00

>> End of run:   2-JUL-2022  14:20:29